instancias/entrada011.lp
Maximize
 101x1 + 844x2 + 162x3 + 822x4 + 258x5 + 551x6 + 830x7 + 874x8 + 482x9 + 92x10 + 269x11 + 286x12 + 11x13 + 940x14 + 233x15 + 570x16 + 13x17 + 850x18 + 883x19 + 500x20
Subject To
 430x1 + 450x2 + 116x3 + 779x4 + 376x5 + 885x6 + 711x7 + 736x8 + 394x9 + 70x10 + 35x11 + 835x12 + 165x13 + 334x14 + 555x15 + 346x16 + 954x17 + 292x18 + 393x19 + 290x20 <= 961
Bounds
 0 <= x1 <= 1
 0 <= x2 <= 1
 0 <= x3 <= 1
 0 <= x4 <= 1
 0 <= x5 <= 1
 0 <= x6 <= 1
 0 <= x7 <= 1
 0 <= x8 <= 1
 0 <= x9 <= 1
 0 <= x10 <= 1
 0 <= x11 <= 1
 0 <= x12 <= 1
 0 <= x13 <= 1
 0 <= x14 <= 1
 0 <= x15 <= 1
 0 <= x16 <= 1
 0 <= x17 <= 1
 0 <= x18 <= 1
 0 <= x19 <= 1
 0 <= x20 <= 1
General
 x1 x2 x3 x4 x5 x6 x7 x8 x9 x10 x11 x12 x13 x14 x15 x16 x17 x18 x19 x20
End