instancias/entrada011.txt
20
961
101 844 162 822 258 551 830 874 482 92 269 286 11 940 233 570 13 850 883 500
430 450 116 779 376 885 711 736 394 70 35 835 165 334 555 346 954 292 393 290